p tw 80 1201 3 
1 8 
1 9 
2 4 
2 7 
2 10 
3 8 
3 10 
4 7 
4 9 
5 9 
5 10 
5 15 
6 7 
6 8 
6 16 
11 18 
11 19 
11 21 
12 17 
12 20 
12 22 
13 18 
13 20 
13 23 
14 17 
14 19 
14 24 
15 19 
15 20 
16 17 
16 18 
21 28 
21 29 
22 27 
22 30 
23 28 
23 30 
24 27 
24 29 
25 29 
25 30 
25 35 
26 27 
26 28 
26 36 
31 38 
31 39 
31 41 
32 37 
32 40 
32 42 
33 38 
33 40 
33 43 
34 37 
34 39 
34 44 
35 39 
35 40 
36 37 
36 38 
41 48 
41 49 
42 47 
42 50 
43 48 
43 50 
44 47 
44 49 
45 49 
45 50 
45 55 
46 47 
46 48 
46 56 
51 58 
51 59 
51 61 
52 57 
52 60 
52 62 
53 58 
53 60 
53 63 
54 57 
54 59 
54 64 
55 59 
55 60 
56 57 
56 58 
61 68 
61 69 
62 67 
62 70 
63 68 
63 70 
64 67 
64 69 
65 69 
65 70 
65 75 
66 67 
66 68 
66 76 
71 73 
71 78 
71 79 
72 74 
72 77 
72 80 
73 78 
73 80 
74 77 
74 79 
75 79 
75 80 
76 77 
76 78 
